NAME : portcgen-23-25
COMMENT : portcgen N=23, seed=25
TYPE : TSP
DIMENSION : 23
EDGE_WEIGHT_TYPE : EUC_2D
NODE_COORD_SECTION
1 -179778 385652
2 -282864 -331894
3 -24969 -293277
4 -206671 9856
5 71223 -7975
6 -16739 111026
7 -140774 -201397
8 111545 -95359
9 261391 195464
10 59329 -94160
11 667309 38811
12 -353050 -351039
13 80937 109613
14 20351 -112980
15 -223225 -169467
16 125108 226686
17 45284 -244844
18 2466 -124801
19 -78245 -58827
20 56165 -21357
21 -46305 -234667
22 -321117 80246
23 -37450 -119077
